\ LP format - for model browsing. Use MPS format to capture full model detail.
Minimize
  2 x0 + 5 x2 + 3 x4
Subject To
 constr(0): - x0 + 2 x2 - x3 + 4 x4 = 3
 constr(1): 5 x0 + 5 x1 + 2 x2 + 3 x3 <= 4
Bounds
 x0 <= 2
 x1 <= 2
 x2 <= 4
 x3 <= 5
 x4 <= 3
Generals
 x0 x1 x2 x3 x4
End
